NAME:  ejemplo_ATSP_5
TYPE: ATSP
COMMENT: Ejemplo de 5 ciudades
DIMENSION: 5
EDGE_WEIGHT_TYPE: EXPLICIT
EDGE_WEIGHT_FORMAT: FULL_MATRIX
EDGE_WEIGHT_SECTION
 9999    2    3   10    5
    2 9999    4    8    1
    3    4 9999    6    7
   10    8    6 9999    9
    5    1    7    9 9999
EOF